c *********************************
c * Circuit generated by BenCGen
c *
c * CarrySelectAdder_45_45_45_InOut_G4T
c *
c * Ports with 1 gate(s): 79
c * Ports with 2 gate(s): 609
c * Ports with 4 gate(s): 20
c * Total gates: 708
c *********************************
p cnf 798 2257
1 138 0
-1 -138 0
1 -137 0
138 -137 0
-1 -138 137 0
137 155 0
-137 -155 0
1 46 -141 0
-1 46 141 0
1 -46 141 0
-1 -46 -141 0
141 137 -91 0
-141 137 91 0
141 -137 91 0
-141 -137 -91 0
137 -142 0
141 -142 0
-137 -141 142 0
46 -143 0
1 -143 0
-46 -1 143 0
-142 140 0
-143 140 0
142 143 -140 0
2 47 -145 0
-2 47 145 0
2 -47 145 0
-2 -47 -145 0
145 140 -92 0
-145 140 92 0
145 -140 92 0
-145 -140 -92 0
140 -146 0
145 -146 0
-140 -145 146 0
47 -147 0
2 -147 0
-47 -2 147 0
-146 144 0
-147 144 0
146 147 -144 0
3 48 -149 0
-3 48 149 0
3 -48 149 0
-3 -48 -149 0
149 144 -93 0
-149 144 93 0
149 -144 93 0
-149 -144 -93 0
144 -150 0
149 -150 0
-144 -149 150 0
48 -151 0
3 -151 0
-48 -3 151 0
-150 148 0
-151 148 0
150 151 -148 0
4 49 -152 0
-4 49 152 0
4 -49 152 0
-4 -49 -152 0
152 148 -94 0
-152 148 94 0
152 -148 94 0
-152 -148 -94 0
148 -153 0
152 -153 0
-148 -152 153 0
49 -154 0
4 -154 0
-49 -4 154 0
-153 139 0
-154 139 0
153 154 -139 0
5 50 -166 0
-5 50 166 0
5 -50 166 0
-5 -50 -166 0
166 137 -156 0
-166 137 156 0
166 -137 156 0
-166 -137 -156 0
137 -167 0
166 -167 0
-137 -166 167 0
50 -168 0
5 -168 0
-50 -5 168 0
-167 165 0
-168 165 0
167 168 -165 0
6 51 -170 0
-6 51 170 0
6 -51 170 0
-6 -51 -170 0
170 165 -157 0
-170 165 157 0
170 -165 157 0
-170 -165 -157 0
165 -171 0
170 -171 0
-165 -170 171 0
51 -172 0
6 -172 0
-51 -6 172 0
-171 169 0
-172 169 0
171 172 -169 0
7 52 -174 0
-7 52 174 0
7 -52 174 0
-7 -52 -174 0
174 169 -158 0
-174 169 158 0
174 -169 158 0
-174 -169 -158 0
169 -175 0
174 -175 0
-169 -174 175 0
52 -176 0
7 -176 0
-52 -7 176 0
-175 173 0
-176 173 0
175 176 -173 0
8 53 -177 0
-8 53 177 0
8 -53 177 0
-8 -53 -177 0
177 173 -159 0
-177 173 159 0
177 -173 159 0
-177 -173 -159 0
173 -178 0
177 -178 0
-173 -177 178 0
53 -179 0
8 -179 0
-53 -8 179 0
-178 164 0
-179 164 0
178 179 -164 0
166 -180 0
170 -180 0
174 -180 0
177 -180 0
-166 -170 -174 -177 180 0
179 -181 0
-179 181 0
5 50 -184 0
-5 50 184 0
5 -50 184 0
-5 -50 -184 0
184 155 -160 0
-184 155 160 0
184 -155 160 0
-184 -155 -160 0
155 -185 0
184 -185 0
-155 -184 185 0
50 -186 0
5 -186 0
-50 -5 186 0
-185 183 0
-186 183 0
185 186 -183 0
6 51 -188 0
-6 51 188 0
6 -51 188 0
-6 -51 -188 0
188 183 -161 0
-188 183 161 0
188 -183 161 0
-188 -183 -161 0
183 -189 0
188 -189 0
-183 -188 189 0
51 -190 0
6 -190 0
-51 -6 190 0
-189 187 0
-190 187 0
189 190 -187 0
7 52 -192 0
-7 52 192 0
7 -52 192 0
-7 -52 -192 0
192 187 -162 0
-192 187 162 0
192 -187 162 0
-192 -187 -162 0
187 -193 0
192 -193 0
-187 -192 193 0
52 -194 0
7 -194 0
-52 -7 194 0
-193 191 0
-194 191 0
193 194 -191 0
8 53 -195 0
-8 53 195 0
8 -53 195 0
-8 -53 -195 0
195 191 -163 0
-195 191 163 0
195 -191 163 0
-195 -191 -163 0
191 -196 0
195 -196 0
-191 -195 196 0
53 -197 0
8 -197 0
-53 -8 197 0
-196 182 0
-197 182 0
196 197 -182 0
184 -198 0
188 -198 0
192 -198 0
195 -198 0
-184 -188 -192 -195 198 0
197 -199 0
-197 199 0
9 54 -228 0
-9 54 228 0
9 -54 228 0
-9 -54 -228 0
228 137 -218 0
-228 137 218 0
228 -137 218 0
-228 -137 -218 0
137 -229 0
228 -229 0
-137 -228 229 0
54 -230 0
9 -230 0
-54 -9 230 0
-229 227 0
-230 227 0
229 230 -227 0
10 55 -232 0
-10 55 232 0
10 -55 232 0
-10 -55 -232 0
232 227 -219 0
-232 227 219 0
232 -227 219 0
-232 -227 -219 0
227 -233 0
232 -233 0
-227 -232 233 0
55 -234 0
10 -234 0
-55 -10 234 0
-233 231 0
-234 231 0
233 234 -231 0
11 56 -236 0
-11 56 236 0
11 -56 236 0
-11 -56 -236 0
236 231 -220 0
-236 231 220 0
236 -231 220 0
-236 -231 -220 0
231 -237 0
236 -237 0
-231 -236 237 0
56 -238 0
11 -238 0
-56 -11 238 0
-237 235 0
-238 235 0
237 238 -235 0
12 57 -239 0
-12 57 239 0
12 -57 239 0
-12 -57 -239 0
239 235 -221 0
-239 235 221 0
239 -235 221 0
-239 -235 -221 0
235 -240 0
239 -240 0
-235 -239 240 0
57 -241 0
12 -241 0
-57 -12 241 0
-240 226 0
-241 226 0
240 241 -226 0
228 -242 0
232 -242 0
236 -242 0
239 -242 0
-228 -232 -236 -239 242 0
241 -243 0
-241 243 0
9 54 -246 0
-9 54 246 0
9 -54 246 0
-9 -54 -246 0
246 155 -222 0
-246 155 222 0
246 -155 222 0
-246 -155 -222 0
155 -247 0
246 -247 0
-155 -246 247 0
54 -248 0
9 -248 0
-54 -9 248 0
-247 245 0
-248 245 0
247 248 -245 0
10 55 -250 0
-10 55 250 0
10 -55 250 0
-10 -55 -250 0
250 245 -223 0
-250 245 223 0
250 -245 223 0
-250 -245 -223 0
245 -251 0
250 -251 0
-245 -250 251 0
55 -252 0
10 -252 0
-55 -10 252 0
-251 249 0
-252 249 0
251 252 -249 0
11 56 -254 0
-11 56 254 0
11 -56 254 0
-11 -56 -254 0
254 249 -224 0
-254 249 224 0
254 -249 224 0
-254 -249 -224 0
249 -255 0
254 -255 0
-249 -254 255 0
56 -256 0
11 -256 0
-56 -11 256 0
-255 253 0
-256 253 0
255 256 -253 0
12 57 -257 0
-12 57 257 0
12 -57 257 0
-12 -57 -257 0
257 253 -225 0
-257 253 225 0
257 -253 225 0
-257 -253 -225 0
253 -258 0
257 -258 0
-253 -257 258 0
57 -259 0
12 -259 0
-57 -12 259 0
-258 244 0
-259 244 0
258 259 -244 0
246 -260 0
250 -260 0
254 -260 0
257 -260 0
-246 -250 -254 -257 260 0
259 -261 0
-259 261 0
13 58 -290 0
-13 58 290 0
13 -58 290 0
-13 -58 -290 0
290 137 -280 0
-290 137 280 0
290 -137 280 0
-290 -137 -280 0
137 -291 0
290 -291 0
-137 -290 291 0
58 -292 0
13 -292 0
-58 -13 292 0
-291 289 0
-292 289 0
291 292 -289 0
14 59 -294 0
-14 59 294 0
14 -59 294 0
-14 -59 -294 0
294 289 -281 0
-294 289 281 0
294 -289 281 0
-294 -289 -281 0
289 -295 0
294 -295 0
-289 -294 295 0
59 -296 0
14 -296 0
-59 -14 296 0
-295 293 0
-296 293 0
295 296 -293 0
15 60 -298 0
-15 60 298 0
15 -60 298 0
-15 -60 -298 0
298 293 -282 0
-298 293 282 0
298 -293 282 0
-298 -293 -282 0
293 -299 0
298 -299 0
-293 -298 299 0
60 -300 0
15 -300 0
-60 -15 300 0
-299 297 0
-300 297 0
299 300 -297 0
16 61 -301 0
-16 61 301 0
16 -61 301 0
-16 -61 -301 0
301 297 -283 0
-301 297 283 0
301 -297 283 0
-301 -297 -283 0
297 -302 0
301 -302 0
-297 -301 302 0
61 -303 0
16 -303 0
-61 -16 303 0
-302 288 0
-303 288 0
302 303 -288 0
290 -304 0
294 -304 0
298 -304 0
301 -304 0
-290 -294 -298 -301 304 0
303 -305 0
-303 305 0
13 58 -308 0
-13 58 308 0
13 -58 308 0
-13 -58 -308 0
308 155 -284 0
-308 155 284 0
308 -155 284 0
-308 -155 -284 0
155 -309 0
308 -309 0
-155 -308 309 0
58 -310 0
13 -310 0
-58 -13 310 0
-309 307 0
-310 307 0
309 310 -307 0
14 59 -312 0
-14 59 312 0
14 -59 312 0
-14 -59 -312 0
312 307 -285 0
-312 307 285 0
312 -307 285 0
-312 -307 -285 0
307 -313 0
312 -313 0
-307 -312 313 0
59 -314 0
14 -314 0
-59 -14 314 0
-313 311 0
-314 311 0
313 314 -311 0
15 60 -316 0
-15 60 316 0
15 -60 316 0
-15 -60 -316 0
316 311 -286 0
-316 311 286 0
316 -311 286 0
-316 -311 -286 0
311 -317 0
316 -317 0
-311 -316 317 0
60 -318 0
15 -318 0
-60 -15 318 0
-317 315 0
-318 315 0
317 318 -315 0
16 61 -319 0
-16 61 319 0
16 -61 319 0
-16 -61 -319 0
319 315 -287 0
-319 315 287 0
319 -315 287 0
-319 -315 -287 0
315 -320 0
319 -320 0
-315 -319 320 0
61 -321 0
16 -321 0
-61 -16 321 0
-320 306 0
-321 306 0
320 321 -306 0
308 -322 0
312 -322 0
316 -322 0
319 -322 0
-308 -312 -316 -319 322 0
321 -323 0
-321 323 0
17 62 -352 0
-17 62 352 0
17 -62 352 0
-17 -62 -352 0
352 137 -342 0
-352 137 342 0
352 -137 342 0
-352 -137 -342 0
137 -353 0
352 -353 0
-137 -352 353 0
62 -354 0
17 -354 0
-62 -17 354 0
-353 351 0
-354 351 0
353 354 -351 0
18 63 -356 0
-18 63 356 0
18 -63 356 0
-18 -63 -356 0
356 351 -343 0
-356 351 343 0
356 -351 343 0
-356 -351 -343 0
351 -357 0
356 -357 0
-351 -356 357 0
63 -358 0
18 -358 0
-63 -18 358 0
-357 355 0
-358 355 0
357 358 -355 0
19 64 -360 0
-19 64 360 0
19 -64 360 0
-19 -64 -360 0
360 355 -344 0
-360 355 344 0
360 -355 344 0
-360 -355 -344 0
355 -361 0
360 -361 0
-355 -360 361 0
64 -362 0
19 -362 0
-64 -19 362 0
-361 359 0
-362 359 0
361 362 -359 0
20 65 -363 0
-20 65 363 0
20 -65 363 0
-20 -65 -363 0
363 359 -345 0
-363 359 345 0
363 -359 345 0
-363 -359 -345 0
359 -364 0
363 -364 0
-359 -363 364 0
65 -365 0
20 -365 0
-65 -20 365 0
-364 350 0
-365 350 0
364 365 -350 0
352 -366 0
356 -366 0
360 -366 0
363 -366 0
-352 -356 -360 -363 366 0
365 -367 0
-365 367 0
17 62 -370 0
-17 62 370 0
17 -62 370 0
-17 -62 -370 0
370 155 -346 0
-370 155 346 0
370 -155 346 0
-370 -155 -346 0
155 -371 0
370 -371 0
-155 -370 371 0
62 -372 0
17 -372 0
-62 -17 372 0
-371 369 0
-372 369 0
371 372 -369 0
18 63 -374 0
-18 63 374 0
18 -63 374 0
-18 -63 -374 0
374 369 -347 0
-374 369 347 0
374 -369 347 0
-374 -369 -347 0
369 -375 0
374 -375 0
-369 -374 375 0
63 -376 0
18 -376 0
-63 -18 376 0
-375 373 0
-376 373 0
375 376 -373 0
19 64 -378 0
-19 64 378 0
19 -64 378 0
-19 -64 -378 0
378 373 -348 0
-378 373 348 0
378 -373 348 0
-378 -373 -348 0
373 -379 0
378 -379 0
-373 -378 379 0
64 -380 0
19 -380 0
-64 -19 380 0
-379 377 0
-380 377 0
379 380 -377 0
20 65 -381 0
-20 65 381 0
20 -65 381 0
-20 -65 -381 0
381 377 -349 0
-381 377 349 0
381 -377 349 0
-381 -377 -349 0
377 -382 0
381 -382 0
-377 -381 382 0
65 -383 0
20 -383 0
-65 -20 383 0
-382 368 0
-383 368 0
382 383 -368 0
370 -384 0
374 -384 0
378 -384 0
381 -384 0
-370 -374 -378 -381 384 0
383 -385 0
-383 385 0
21 66 -414 0
-21 66 414 0
21 -66 414 0
-21 -66 -414 0
414 137 -404 0
-414 137 404 0
414 -137 404 0
-414 -137 -404 0
137 -415 0
414 -415 0
-137 -414 415 0
66 -416 0
21 -416 0
-66 -21 416 0
-415 413 0
-416 413 0
415 416 -413 0
22 67 -418 0
-22 67 418 0
22 -67 418 0
-22 -67 -418 0
418 413 -405 0
-418 413 405 0
418 -413 405 0
-418 -413 -405 0
413 -419 0
418 -419 0
-413 -418 419 0
67 -420 0
22 -420 0
-67 -22 420 0
-419 417 0
-420 417 0
419 420 -417 0
23 68 -422 0
-23 68 422 0
23 -68 422 0
-23 -68 -422 0
422 417 -406 0
-422 417 406 0
422 -417 406 0
-422 -417 -406 0
417 -423 0
422 -423 0
-417 -422 423 0
68 -424 0
23 -424 0
-68 -23 424 0
-423 421 0
-424 421 0
423 424 -421 0
24 69 -425 0
-24 69 425 0
24 -69 425 0
-24 -69 -425 0
425 421 -407 0
-425 421 407 0
425 -421 407 0
-425 -421 -407 0
421 -426 0
425 -426 0
-421 -425 426 0
69 -427 0
24 -427 0
-69 -24 427 0
-426 412 0
-427 412 0
426 427 -412 0
414 -428 0
418 -428 0
422 -428 0
425 -428 0
-414 -418 -422 -425 428 0
427 -429 0
-427 429 0
21 66 -432 0
-21 66 432 0
21 -66 432 0
-21 -66 -432 0
432 155 -408 0
-432 155 408 0
432 -155 408 0
-432 -155 -408 0
155 -433 0
432 -433 0
-155 -432 433 0
66 -434 0
21 -434 0
-66 -21 434 0
-433 431 0
-434 431 0
433 434 -431 0
22 67 -436 0
-22 67 436 0
22 -67 436 0
-22 -67 -436 0
436 431 -409 0
-436 431 409 0
436 -431 409 0
-436 -431 -409 0
431 -437 0
436 -437 0
-431 -436 437 0
67 -438 0
22 -438 0
-67 -22 438 0
-437 435 0
-438 435 0
437 438 -435 0
23 68 -440 0
-23 68 440 0
23 -68 440 0
-23 -68 -440 0
440 435 -410 0
-440 435 410 0
440 -435 410 0
-440 -435 -410 0
435 -441 0
440 -441 0
-435 -440 441 0
68 -442 0
23 -442 0
-68 -23 442 0
-441 439 0
-442 439 0
441 442 -439 0
24 69 -443 0
-24 69 443 0
24 -69 443 0
-24 -69 -443 0
443 439 -411 0
-443 439 411 0
443 -439 411 0
-443 -439 -411 0
439 -444 0
443 -444 0
-439 -443 444 0
69 -445 0
24 -445 0
-69 -24 445 0
-444 430 0
-445 430 0
444 445 -430 0
432 -446 0
436 -446 0
440 -446 0
443 -446 0
-432 -436 -440 -443 446 0
445 -447 0
-445 447 0
25 70 -476 0
-25 70 476 0
25 -70 476 0
-25 -70 -476 0
476 137 -466 0
-476 137 466 0
476 -137 466 0
-476 -137 -466 0
137 -477 0
476 -477 0
-137 -476 477 0
70 -478 0
25 -478 0
-70 -25 478 0
-477 475 0
-478 475 0
477 478 -475 0
26 71 -480 0
-26 71 480 0
26 -71 480 0
-26 -71 -480 0
480 475 -467 0
-480 475 467 0
480 -475 467 0
-480 -475 -467 0
475 -481 0
480 -481 0
-475 -480 481 0
71 -482 0
26 -482 0
-71 -26 482 0
-481 479 0
-482 479 0
481 482 -479 0
27 72 -484 0
-27 72 484 0
27 -72 484 0
-27 -72 -484 0
484 479 -468 0
-484 479 468 0
484 -479 468 0
-484 -479 -468 0
479 -485 0
484 -485 0
-479 -484 485 0
72 -486 0
27 -486 0
-72 -27 486 0
-485 483 0
-486 483 0
485 486 -483 0
28 73 -487 0
-28 73 487 0
28 -73 487 0
-28 -73 -487 0
487 483 -469 0
-487 483 469 0
487 -483 469 0
-487 -483 -469 0
483 -488 0
487 -488 0
-483 -487 488 0
73 -489 0
28 -489 0
-73 -28 489 0
-488 474 0
-489 474 0
488 489 -474 0
476 -490 0
480 -490 0
484 -490 0
487 -490 0
-476 -480 -484 -487 490 0
489 -491 0
-489 491 0
25 70 -494 0
-25 70 494 0
25 -70 494 0
-25 -70 -494 0
494 155 -470 0
-494 155 470 0
494 -155 470 0
-494 -155 -470 0
155 -495 0
494 -495 0
-155 -494 495 0
70 -496 0
25 -496 0
-70 -25 496 0
-495 493 0
-496 493 0
495 496 -493 0
26 71 -498 0
-26 71 498 0
26 -71 498 0
-26 -71 -498 0
498 493 -471 0
-498 493 471 0
498 -493 471 0
-498 -493 -471 0
493 -499 0
498 -499 0
-493 -498 499 0
71 -500 0
26 -500 0
-71 -26 500 0
-499 497 0
-500 497 0
499 500 -497 0
27 72 -502 0
-27 72 502 0
27 -72 502 0
-27 -72 -502 0
502 497 -472 0
-502 497 472 0
502 -497 472 0
-502 -497 -472 0
497 -503 0
502 -503 0
-497 -502 503 0
72 -504 0
27 -504 0
-72 -27 504 0
-503 501 0
-504 501 0
503 504 -501 0
28 73 -505 0
-28 73 505 0
28 -73 505 0
-28 -73 -505 0
505 501 -473 0
-505 501 473 0
505 -501 473 0
-505 -501 -473 0
501 -506 0
505 -506 0
-501 -505 506 0
73 -507 0
28 -507 0
-73 -28 507 0
-506 492 0
-507 492 0
506 507 -492 0
494 -508 0
498 -508 0
502 -508 0
505 -508 0
-494 -498 -502 -505 508 0
507 -509 0
-507 509 0
29 74 -538 0
-29 74 538 0
29 -74 538 0
-29 -74 -538 0
538 137 -528 0
-538 137 528 0
538 -137 528 0
-538 -137 -528 0
137 -539 0
538 -539 0
-137 -538 539 0
74 -540 0
29 -540 0
-74 -29 540 0
-539 537 0
-540 537 0
539 540 -537 0
30 75 -542 0
-30 75 542 0
30 -75 542 0
-30 -75 -542 0
542 537 -529 0
-542 537 529 0
542 -537 529 0
-542 -537 -529 0
537 -543 0
542 -543 0
-537 -542 543 0
75 -544 0
30 -544 0
-75 -30 544 0
-543 541 0
-544 541 0
543 544 -541 0
31 76 -546 0
-31 76 546 0
31 -76 546 0
-31 -76 -546 0
546 541 -530 0
-546 541 530 0
546 -541 530 0
-546 -541 -530 0
541 -547 0
546 -547 0
-541 -546 547 0
76 -548 0
31 -548 0
-76 -31 548 0
-547 545 0
-548 545 0
547 548 -545 0
32 77 -549 0
-32 77 549 0
32 -77 549 0
-32 -77 -549 0
549 545 -531 0
-549 545 531 0
549 -545 531 0
-549 -545 -531 0
545 -550 0
549 -550 0
-545 -549 550 0
77 -551 0
32 -551 0
-77 -32 551 0
-550 536 0
-551 536 0
550 551 -536 0
538 -552 0
542 -552 0
546 -552 0
549 -552 0
-538 -542 -546 -549 552 0
551 -553 0
-551 553 0
29 74 -556 0
-29 74 556 0
29 -74 556 0
-29 -74 -556 0
556 155 -532 0
-556 155 532 0
556 -155 532 0
-556 -155 -532 0
155 -557 0
556 -557 0
-155 -556 557 0
74 -558 0
29 -558 0
-74 -29 558 0
-557 555 0
-558 555 0
557 558 -555 0
30 75 -560 0
-30 75 560 0
30 -75 560 0
-30 -75 -560 0
560 555 -533 0
-560 555 533 0
560 -555 533 0
-560 -555 -533 0
555 -561 0
560 -561 0
-555 -560 561 0
75 -562 0
30 -562 0
-75 -30 562 0
-561 559 0
-562 559 0
561 562 -559 0
31 76 -564 0
-31 76 564 0
31 -76 564 0
-31 -76 -564 0
564 559 -534 0
-564 559 534 0
564 -559 534 0
-564 -559 -534 0
559 -565 0
564 -565 0
-559 -564 565 0
76 -566 0
31 -566 0
-76 -31 566 0
-565 563 0
-566 563 0
565 566 -563 0
32 77 -567 0
-32 77 567 0
32 -77 567 0
-32 -77 -567 0
567 563 -535 0
-567 563 535 0
567 -563 535 0
-567 -563 -535 0
563 -568 0
567 -568 0
-563 -567 568 0
77 -569 0
32 -569 0
-77 -32 569 0
-568 554 0
-569 554 0
568 569 -554 0
556 -570 0
560 -570 0
564 -570 0
567 -570 0
-556 -560 -564 -567 570 0
569 -571 0
-569 571 0
33 78 -600 0
-33 78 600 0
33 -78 600 0
-33 -78 -600 0
600 137 -590 0
-600 137 590 0
600 -137 590 0
-600 -137 -590 0
137 -601 0
600 -601 0
-137 -600 601 0
78 -602 0
33 -602 0
-78 -33 602 0
-601 599 0
-602 599 0
601 602 -599 0
34 79 -604 0
-34 79 604 0
34 -79 604 0
-34 -79 -604 0
604 599 -591 0
-604 599 591 0
604 -599 591 0
-604 -599 -591 0
599 -605 0
604 -605 0
-599 -604 605 0
79 -606 0
34 -606 0
-79 -34 606 0
-605 603 0
-606 603 0
605 606 -603 0
35 80 -608 0
-35 80 608 0
35 -80 608 0
-35 -80 -608 0
608 603 -592 0
-608 603 592 0
608 -603 592 0
-608 -603 -592 0
603 -609 0
608 -609 0
-603 -608 609 0
80 -610 0
35 -610 0
-80 -35 610 0
-609 607 0
-610 607 0
609 610 -607 0
36 81 -611 0
-36 81 611 0
36 -81 611 0
-36 -81 -611 0
611 607 -593 0
-611 607 593 0
611 -607 593 0
-611 -607 -593 0
607 -612 0
611 -612 0
-607 -611 612 0
81 -613 0
36 -613 0
-81 -36 613 0
-612 598 0
-613 598 0
612 613 -598 0
600 -614 0
604 -614 0
608 -614 0
611 -614 0
-600 -604 -608 -611 614 0
613 -615 0
-613 615 0
33 78 -618 0
-33 78 618 0
33 -78 618 0
-33 -78 -618 0
618 155 -594 0
-618 155 594 0
618 -155 594 0
-618 -155 -594 0
155 -619 0
618 -619 0
-155 -618 619 0
78 -620 0
33 -620 0
-78 -33 620 0
-619 617 0
-620 617 0
619 620 -617 0
34 79 -622 0
-34 79 622 0
34 -79 622 0
-34 -79 -622 0
622 617 -595 0
-622 617 595 0
622 -617 595 0
-622 -617 -595 0
617 -623 0
622 -623 0
-617 -622 623 0
79 -624 0
34 -624 0
-79 -34 624 0
-623 621 0
-624 621 0
623 624 -621 0
35 80 -626 0
-35 80 626 0
35 -80 626 0
-35 -80 -626 0
626 621 -596 0
-626 621 596 0
626 -621 596 0
-626 -621 -596 0
621 -627 0
626 -627 0
-621 -626 627 0
80 -628 0
35 -628 0
-80 -35 628 0
-627 625 0
-628 625 0
627 628 -625 0
36 81 -629 0
-36 81 629 0
36 -81 629 0
-36 -81 -629 0
629 625 -597 0
-629 625 597 0
629 -625 597 0
-629 -625 -597 0
625 -630 0
629 -630 0
-625 -629 630 0
81 -631 0
36 -631 0
-81 -36 631 0
-630 616 0
-631 616 0
630 631 -616 0
618 -632 0
622 -632 0
626 -632 0
629 -632 0
-618 -622 -626 -629 632 0
631 -633 0
-631 633 0
37 82 -662 0
-37 82 662 0
37 -82 662 0
-37 -82 -662 0
662 137 -652 0
-662 137 652 0
662 -137 652 0
-662 -137 -652 0
137 -663 0
662 -663 0
-137 -662 663 0
82 -664 0
37 -664 0
-82 -37 664 0
-663 661 0
-664 661 0
663 664 -661 0
38 83 -666 0
-38 83 666 0
38 -83 666 0
-38 -83 -666 0
666 661 -653 0
-666 661 653 0
666 -661 653 0
-666 -661 -653 0
661 -667 0
666 -667 0
-661 -666 667 0
83 -668 0
38 -668 0
-83 -38 668 0
-667 665 0
-668 665 0
667 668 -665 0
39 84 -670 0
-39 84 670 0
39 -84 670 0
-39 -84 -670 0
670 665 -654 0
-670 665 654 0
670 -665 654 0
-670 -665 -654 0
665 -671 0
670 -671 0
-665 -670 671 0
84 -672 0
39 -672 0
-84 -39 672 0
-671 669 0
-672 669 0
671 672 -669 0
40 85 -673 0
-40 85 673 0
40 -85 673 0
-40 -85 -673 0
673 669 -655 0
-673 669 655 0
673 -669 655 0
-673 -669 -655 0
669 -674 0
673 -674 0
-669 -673 674 0
85 -675 0
40 -675 0
-85 -40 675 0
-674 660 0
-675 660 0
674 675 -660 0
662 -676 0
666 -676 0
670 -676 0
673 -676 0
-662 -666 -670 -673 676 0
675 -677 0
-675 677 0
37 82 -680 0
-37 82 680 0
37 -82 680 0
-37 -82 -680 0
680 155 -656 0
-680 155 656 0
680 -155 656 0
-680 -155 -656 0
155 -681 0
680 -681 0
-155 -680 681 0
82 -682 0
37 -682 0
-82 -37 682 0
-681 679 0
-682 679 0
681 682 -679 0
38 83 -684 0
-38 83 684 0
38 -83 684 0
-38 -83 -684 0
684 679 -657 0
-684 679 657 0
684 -679 657 0
-684 -679 -657 0
679 -685 0
684 -685 0
-679 -684 685 0
83 -686 0
38 -686 0
-83 -38 686 0
-685 683 0
-686 683 0
685 686 -683 0
39 84 -688 0
-39 84 688 0
39 -84 688 0
-39 -84 -688 0
688 683 -658 0
-688 683 658 0
688 -683 658 0
-688 -683 -658 0
683 -689 0
688 -689 0
-683 -688 689 0
84 -690 0
39 -690 0
-84 -39 690 0
-689 687 0
-690 687 0
689 690 -687 0
40 85 -691 0
-40 85 691 0
40 -85 691 0
-40 -85 -691 0
691 687 -659 0
-691 687 659 0
691 -687 659 0
-691 -687 -659 0
687 -692 0
691 -692 0
-687 -691 692 0
85 -693 0
40 -693 0
-85 -40 693 0
-692 678 0
-693 678 0
692 693 -678 0
680 -694 0
684 -694 0
688 -694 0
691 -694 0
-680 -684 -688 -691 694 0
693 -695 0
-693 695 0
41 86 -724 0
-41 86 724 0
41 -86 724 0
-41 -86 -724 0
724 137 -714 0
-724 137 714 0
724 -137 714 0
-724 -137 -714 0
137 -725 0
724 -725 0
-137 -724 725 0
86 -726 0
41 -726 0
-86 -41 726 0
-725 723 0
-726 723 0
725 726 -723 0
42 87 -728 0
-42 87 728 0
42 -87 728 0
-42 -87 -728 0
728 723 -715 0
-728 723 715 0
728 -723 715 0
-728 -723 -715 0
723 -729 0
728 -729 0
-723 -728 729 0
87 -730 0
42 -730 0
-87 -42 730 0
-729 727 0
-730 727 0
729 730 -727 0
43 88 -732 0
-43 88 732 0
43 -88 732 0
-43 -88 -732 0
732 727 -716 0
-732 727 716 0
732 -727 716 0
-732 -727 -716 0
727 -733 0
732 -733 0
-727 -732 733 0
88 -734 0
43 -734 0
-88 -43 734 0
-733 731 0
-734 731 0
733 734 -731 0
44 89 -735 0
-44 89 735 0
44 -89 735 0
-44 -89 -735 0
735 731 -717 0
-735 731 717 0
735 -731 717 0
-735 -731 -717 0
731 -736 0
735 -736 0
-731 -735 736 0
89 -737 0
44 -737 0
-89 -44 737 0
-736 722 0
-737 722 0
736 737 -722 0
724 -738 0
728 -738 0
732 -738 0
735 -738 0
-724 -728 -732 -735 738 0
737 -739 0
-737 739 0
41 86 -742 0
-41 86 742 0
41 -86 742 0
-41 -86 -742 0
742 155 -718 0
-742 155 718 0
742 -155 718 0
-742 -155 -718 0
155 -743 0
742 -743 0
-155 -742 743 0
86 -744 0
41 -744 0
-86 -41 744 0
-743 741 0
-744 741 0
743 744 -741 0
42 87 -746 0
-42 87 746 0
42 -87 746 0
-42 -87 -746 0
746 741 -719 0
-746 741 719 0
746 -741 719 0
-746 -741 -719 0
741 -747 0
746 -747 0
-741 -746 747 0
87 -748 0
42 -748 0
-87 -42 748 0
-747 745 0
-748 745 0
747 748 -745 0
43 88 -750 0
-43 88 750 0
43 -88 750 0
-43 -88 -750 0
750 745 -720 0
-750 745 720 0
750 -745 720 0
-750 -745 -720 0
745 -751 0
750 -751 0
-745 -750 751 0
88 -752 0
43 -752 0
-88 -43 752 0
-751 749 0
-752 749 0
751 752 -749 0
44 89 -753 0
-44 89 753 0
44 -89 753 0
-44 -89 -753 0
753 749 -721 0
-753 749 721 0
753 -749 721 0
-753 -749 -721 0
749 -754 0
753 -754 0
-749 -753 754 0
89 -755 0
44 -755 0
-89 -44 755 0
-754 740 0
-755 740 0
754 755 -740 0
742 -756 0
746 -756 0
750 -756 0
753 -756 0
-742 -746 -750 -753 756 0
755 -757 0
-755 757 0
45 90 -779 0
-45 90 779 0
45 -90 779 0
-45 -90 -779 0
779 137 -776 0
-779 137 776 0
779 -137 776 0
-779 -137 -776 0
137 -780 0
779 -780 0
-137 -779 780 0
90 -781 0
45 -781 0
-90 -45 781 0
-780 778 0
-781 778 0
780 781 -778 0
779 -782 0
-779 782 0
781 -783 0
-781 783 0
45 90 -785 0
-45 90 785 0
45 -90 785 0
-45 -90 -785 0
785 155 -777 0
-785 155 777 0
785 -155 777 0
-785 -155 -777 0
155 -786 0
785 -786 0
-155 -785 786 0
90 -787 0
45 -787 0
-90 -45 787 0
-786 784 0
-787 784 0
786 787 -784 0
785 -788 0
-785 788 0
787 -789 0
-787 789 0
139 201 0
-139 -201 0
201 -202 0
156 -202 0
-201 -156 202 0
139 -203 0
160 -203 0
-139 -160 203 0
-202 95 0
-203 95 0
202 203 -95 0
139 204 0
-139 -204 0
204 -205 0
157 -205 0
-204 -157 205 0
139 -206 0
161 -206 0
-139 -161 206 0
-205 96 0
-206 96 0
205 206 -96 0
139 207 0
-139 -207 0
207 -208 0
158 -208 0
-207 -158 208 0
139 -209 0
162 -209 0
-139 -162 209 0
-208 97 0
-209 97 0
208 209 -97 0
139 210 0
-139 -210 0
210 -211 0
159 -211 0
-210 -159 211 0
139 -212 0
163 -212 0
-139 -163 212 0
-211 98 0
-212 98 0
211 212 -98 0
139 213 0
-139 -213 0
213 -214 0
164 -214 0
-213 -164 214 0
139 -215 0
182 -215 0
-139 -182 215 0
-214 200 0
-215 200 0
214 215 -200 0
139 -216 0
198 -216 0
-139 -198 216 0
-216 217 0
-200 217 0
216 200 -217 0
217 263 0
-217 -263 0
263 -264 0
218 -264 0
-263 -218 264 0
217 -265 0
222 -265 0
-217 -222 265 0
-264 99 0
-265 99 0
264 265 -99 0
217 266 0
-217 -266 0
266 -267 0
219 -267 0
-266 -219 267 0
217 -268 0
223 -268 0
-217 -223 268 0
-267 100 0
-268 100 0
267 268 -100 0
217 269 0
-217 -269 0
269 -270 0
220 -270 0
-269 -220 270 0
217 -271 0
224 -271 0
-217 -224 271 0
-270 101 0
-271 101 0
270 271 -101 0
217 272 0
-217 -272 0
272 -273 0
221 -273 0
-272 -221 273 0
217 -274 0
225 -274 0
-217 -225 274 0
-273 102 0
-274 102 0
273 274 -102 0
217 275 0
-217 -275 0
275 -276 0
226 -276 0
-275 -226 276 0
217 -277 0
244 -277 0
-217 -244 277 0
-276 262 0
-277 262 0
276 277 -262 0
217 -278 0
260 -278 0
-217 -260 278 0
-278 279 0
-262 279 0
278 262 -279 0
279 325 0
-279 -325 0
325 -326 0
280 -326 0
-325 -280 326 0
279 -327 0
284 -327 0
-279 -284 327 0
-326 103 0
-327 103 0
326 327 -103 0
279 328 0
-279 -328 0
328 -329 0
281 -329 0
-328 -281 329 0
279 -330 0
285 -330 0
-279 -285 330 0
-329 104 0
-330 104 0
329 330 -104 0
279 331 0
-279 -331 0
331 -332 0
282 -332 0
-331 -282 332 0
279 -333 0
286 -333 0
-279 -286 333 0
-332 105 0
-333 105 0
332 333 -105 0
279 334 0
-279 -334 0
334 -335 0
283 -335 0
-334 -283 335 0
279 -336 0
287 -336 0
-279 -287 336 0
-335 106 0
-336 106 0
335 336 -106 0
279 337 0
-279 -337 0
337 -338 0
288 -338 0
-337 -288 338 0
279 -339 0
306 -339 0
-279 -306 339 0
-338 324 0
-339 324 0
338 339 -324 0
279 -340 0
322 -340 0
-279 -322 340 0
-340 341 0
-324 341 0
340 324 -341 0
341 387 0
-341 -387 0
387 -388 0
342 -388 0
-387 -342 388 0
341 -389 0
346 -389 0
-341 -346 389 0
-388 107 0
-389 107 0
388 389 -107 0
341 390 0
-341 -390 0
390 -391 0
343 -391 0
-390 -343 391 0
341 -392 0
347 -392 0
-341 -347 392 0
-391 108 0
-392 108 0
391 392 -108 0
341 393 0
-341 -393 0
393 -394 0
344 -394 0
-393 -344 394 0
341 -395 0
348 -395 0
-341 -348 395 0
-394 109 0
-395 109 0
394 395 -109 0
341 396 0
-341 -396 0
396 -397 0
345 -397 0
-396 -345 397 0
341 -398 0
349 -398 0
-341 -349 398 0
-397 110 0
-398 110 0
397 398 -110 0
341 399 0
-341 -399 0
399 -400 0
350 -400 0
-399 -350 400 0
341 -401 0
368 -401 0
-341 -368 401 0
-400 386 0
-401 386 0
400 401 -386 0
341 -402 0
384 -402 0
-341 -384 402 0
-402 403 0
-386 403 0
402 386 -403 0
403 449 0
-403 -449 0
449 -450 0
404 -450 0
-449 -404 450 0
403 -451 0
408 -451 0
-403 -408 451 0
-450 111 0
-451 111 0
450 451 -111 0
403 452 0
-403 -452 0
452 -453 0
405 -453 0
-452 -405 453 0
403 -454 0
409 -454 0
-403 -409 454 0
-453 112 0
-454 112 0
453 454 -112 0
403 455 0
-403 -455 0
455 -456 0
406 -456 0
-455 -406 456 0
403 -457 0
410 -457 0
-403 -410 457 0
-456 113 0
-457 113 0
456 457 -113 0
403 458 0
-403 -458 0
458 -459 0
407 -459 0
-458 -407 459 0
403 -460 0
411 -460 0
-403 -411 460 0
-459 114 0
-460 114 0
459 460 -114 0
403 461 0
-403 -461 0
461 -462 0
412 -462 0
-461 -412 462 0
403 -463 0
430 -463 0
-403 -430 463 0
-462 448 0
-463 448 0
462 463 -448 0
403 -464 0
446 -464 0
-403 -446 464 0
-464 465 0
-448 465 0
464 448 -465 0
465 511 0
-465 -511 0
511 -512 0
466 -512 0
-511 -466 512 0
465 -513 0
470 -513 0
-465 -470 513 0
-512 115 0
-513 115 0
512 513 -115 0
465 514 0
-465 -514 0
514 -515 0
467 -515 0
-514 -467 515 0
465 -516 0
471 -516 0
-465 -471 516 0
-515 116 0
-516 116 0
515 516 -116 0
465 517 0
-465 -517 0
517 -518 0
468 -518 0
-517 -468 518 0
465 -519 0
472 -519 0
-465 -472 519 0
-518 117 0
-519 117 0
518 519 -117 0
465 520 0
-465 -520 0
520 -521 0
469 -521 0
-520 -469 521 0
465 -522 0
473 -522 0
-465 -473 522 0
-521 118 0
-522 118 0
521 522 -118 0
465 523 0
-465 -523 0
523 -524 0
474 -524 0
-523 -474 524 0
465 -525 0
492 -525 0
-465 -492 525 0
-524 510 0
-525 510 0
524 525 -510 0
465 -526 0
508 -526 0
-465 -508 526 0
-526 527 0
-510 527 0
526 510 -527 0
527 573 0
-527 -573 0
573 -574 0
528 -574 0
-573 -528 574 0
527 -575 0
532 -575 0
-527 -532 575 0
-574 119 0
-575 119 0
574 575 -119 0
527 576 0
-527 -576 0
576 -577 0
529 -577 0
-576 -529 577 0
527 -578 0
533 -578 0
-527 -533 578 0
-577 120 0
-578 120 0
577 578 -120 0
527 579 0
-527 -579 0
579 -580 0
530 -580 0
-579 -530 580 0
527 -581 0
534 -581 0
-527 -534 581 0
-580 121 0
-581 121 0
580 581 -121 0
527 582 0
-527 -582 0
582 -583 0
531 -583 0
-582 -531 583 0
527 -584 0
535 -584 0
-527 -535 584 0
-583 122 0
-584 122 0
583 584 -122 0
527 585 0
-527 -585 0
585 -586 0
536 -586 0
-585 -536 586 0
527 -587 0
554 -587 0
-527 -554 587 0
-586 572 0
-587 572 0
586 587 -572 0
527 -588 0
570 -588 0
-527 -570 588 0
-588 589 0
-572 589 0
588 572 -589 0
589 635 0
-589 -635 0
635 -636 0
590 -636 0
-635 -590 636 0
589 -637 0
594 -637 0
-589 -594 637 0
-636 123 0
-637 123 0
636 637 -123 0
589 638 0
-589 -638 0
638 -639 0
591 -639 0
-638 -591 639 0
589 -640 0
595 -640 0
-589 -595 640 0
-639 124 0
-640 124 0
639 640 -124 0
589 641 0
-589 -641 0
641 -642 0
592 -642 0
-641 -592 642 0
589 -643 0
596 -643 0
-589 -596 643 0
-642 125 0
-643 125 0
642 643 -125 0
589 644 0
-589 -644 0
644 -645 0
593 -645 0
-644 -593 645 0
589 -646 0
597 -646 0
-589 -597 646 0
-645 126 0
-646 126 0
645 646 -126 0
589 647 0
-589 -647 0
647 -648 0
598 -648 0
-647 -598 648 0
589 -649 0
616 -649 0
-589 -616 649 0
-648 634 0
-649 634 0
648 649 -634 0
589 -650 0
632 -650 0
-589 -632 650 0
-650 651 0
-634 651 0
650 634 -651 0
651 697 0
-651 -697 0
697 -698 0
652 -698 0
-697 -652 698 0
651 -699 0
656 -699 0
-651 -656 699 0
-698 127 0
-699 127 0
698 699 -127 0
651 700 0
-651 -700 0
700 -701 0
653 -701 0
-700 -653 701 0
651 -702 0
657 -702 0
-651 -657 702 0
-701 128 0
-702 128 0
701 702 -128 0
651 703 0
-651 -703 0
703 -704 0
654 -704 0
-703 -654 704 0
651 -705 0
658 -705 0
-651 -658 705 0
-704 129 0
-705 129 0
704 705 -129 0
651 706 0
-651 -706 0
706 -707 0
655 -707 0
-706 -655 707 0
651 -708 0
659 -708 0
-651 -659 708 0
-707 130 0
-708 130 0
707 708 -130 0
651 709 0
-651 -709 0
709 -710 0
660 -710 0
-709 -660 710 0
651 -711 0
678 -711 0
-651 -678 711 0
-710 696 0
-711 696 0
710 711 -696 0
651 -712 0
694 -712 0
-651 -694 712 0
-712 713 0
-696 713 0
712 696 -713 0
713 759 0
-713 -759 0
759 -760 0
714 -760 0
-759 -714 760 0
713 -761 0
718 -761 0
-713 -718 761 0
-760 131 0
-761 131 0
760 761 -131 0
713 762 0
-713 -762 0
762 -763 0
715 -763 0
-762 -715 763 0
713 -764 0
719 -764 0
-713 -719 764 0
-763 132 0
-764 132 0
763 764 -132 0
713 765 0
-713 -765 0
765 -766 0
716 -766 0
-765 -716 766 0
713 -767 0
720 -767 0
-713 -720 767 0
-766 133 0
-767 133 0
766 767 -133 0
713 768 0
-713 -768 0
768 -769 0
717 -769 0
-768 -717 769 0
713 -770 0
721 -770 0
-713 -721 770 0
-769 134 0
-770 134 0
769 770 -134 0
713 771 0
-713 -771 0
771 -772 0
722 -772 0
-771 -722 772 0
713 -773 0
740 -773 0
-713 -740 773 0
-772 758 0
-773 758 0
772 773 -758 0
713 -774 0
756 -774 0
-713 -756 774 0
-774 775 0
-758 775 0
774 758 -775 0
775 791 0
-775 -791 0
791 -792 0
776 -792 0
-791 -776 792 0
775 -793 0
777 -793 0
-775 -777 793 0
-792 135 0
-793 135 0
792 793 -135 0
775 794 0
-775 -794 0
794 -795 0
778 -795 0
-794 -778 795 0
775 -796 0
784 -796 0
-775 -784 796 0
-795 790 0
-796 790 0
795 796 -790 0
775 -797 0
788 -797 0
-775 -788 797 0
-797 798 0
-790 798 0
797 790 -798 0
798 -136 0
-798 136 0
